nNurses = 127;
nHours = 31;
minHours = 9;
maxHours = 19;
maxConsec = 14;
maxPresence = 26;
demand = [32, 29, 31, 26, 29, 31, 28, 32, 28, 29, 32, 30, 29, 25, 22, 24, 19, 20, 24, 19, 22, 25, 28, 23, 20, 20, 22, 18, 18, 21, 21];
